
Gurobi 8.1.1 (mac64, Python) logging started Fri Jun 21 15:37:40 2019

Academic license - for non-commercial use only
Parameter OutputFlag unchanged
   Value: 1  Min: 0  Max: 1  Default: 1
Parameter OutputFlag unchanged
   Value: 1  Min: 0  Max: 1  Default: 1
Parameter OutputFlag unchanged
   Value: 1  Min: 0  Max: 1  Default: 1
Optimize a model with 14 rows, 16 columns and 34 nonzeros
Coefficient statistics:
  Matrix range     [1e+00, 1e+00]
  Objective range  [6e-01, 9e-01]
  Bounds range     [0e+00, 0e+00]
  RHS range        [1e+00, 1e+00]
Presolve removed 4 rows and 4 columns
Presolve time: 0.03s
Presolved: 10 rows, 12 columns, 28 nonzeros

Iteration    Objective       Primal Inf.    Dual Inf.      Time
       0    5.3713637e+00   6.000000e+00   0.000000e+00      0s
       4    1.5118903e+00   0.000000e+00   0.000000e+00      0s

Solved in 4 iterations and 0.05 seconds
Optimal objective  1.511890279e+00
Parameter OutputFlag unchanged
   Value: 1  Min: 0  Max: 1  Default: 1
Optimize a model with 30 rows, 45 columns and 78 nonzeros
Coefficient statistics:
  Matrix range     [1e+00, 1e+00]
  Objective range  [2e-02, 1e+00]
  Bounds range     [0e+00, 0e+00]
  RHS range        [1e+00, 1e+00]
Presolve removed 9 rows and 18 columns
Presolve time: 0.01s
Presolved: 21 rows, 27 columns, 63 nonzeros

Iteration    Objective       Primal Inf.    Dual Inf.      Time
       0    1.1258506e+01   1.500000e+01   0.000000e+00      0s
       9    2.6615380e+00   0.000000e+00   0.000000e+00      0s

Solved in 9 iterations and 0.02 seconds
Optimal objective  2.661538019e+00
Parameter OutputFlag unchanged
   Value: 1  Min: 0  Max: 1  Default: 1
Optimize a model with 14 rows, 16 columns and 34 nonzeros
Coefficient statistics:
  Matrix range     [1e+00, 1e+00]
  Objective range  [6e-01, 8e-01]
  Bounds range     [0e+00, 0e+00]
  RHS range        [1e+00, 1e+00]
Presolve removed 4 rows and 4 columns
Presolve time: 0.01s
Presolved: 10 rows, 12 columns, 28 nonzeros

Iteration    Objective       Primal Inf.    Dual Inf.      Time
       0    5.6356237e+00   6.000000e+00   0.000000e+00      0s
       4    1.5598422e+00   0.000000e+00   0.000000e+00      0s

Solved in 4 iterations and 0.02 seconds
Optimal objective  1.559842155e+00
Parameter OutputFlag unchanged
   Value: 1  Min: 0  Max: 1  Default: 1
Optimize a model with 28 rows, 48 columns and 70 nonzeros
Coefficient statistics:
  Matrix range     [1e+00, 1e+00]
  Objective range  [8e-02, 8e-01]
  Bounds range     [0e+00, 0e+00]
  RHS range        [1e+00, 1e+00]
Presolve removed 8 rows and 24 columns
Presolve time: 0.01s
Presolved: 20 rows, 24 columns, 56 nonzeros

Iteration    Objective       Primal Inf.    Dual Inf.      Time
       0    7.6853399e+00   1.200000e+01   0.000000e+00      0s
       8    2.7297123e+00   0.000000e+00   0.000000e+00      0s

Solved in 8 iterations and 0.02 seconds
Optimal objective  2.729712255e+00
Parameter OutputFlag unchanged
   Value: 1  Min: 0  Max: 1  Default: 1
Parameter OutputFlag unchanged
   Value: 1  Min: 0  Max: 1  Default: 1
Optimize a model with 28 rows, 48 columns and 112 nonzeros
Coefficient statistics:
  Matrix range     [1e+00, 1e+00]
  Objective range  [1e-01, 8e-01]
  Bounds range     [0e+00, 0e+00]
  RHS range        [1e+00, 1e+00]
Presolve removed 14 rows and 24 columns
Presolve time: 0.01s
Presolved: 14 rows, 24 columns, 68 nonzeros

Iteration    Objective       Primal Inf.    Dual Inf.      Time
       0    4.1498703e+00   6.000000e+00   0.000000e+00      0s
      11    1.7595833e+00   0.000000e+00   0.000000e+00      0s

Solved in 11 iterations and 0.02 seconds
Optimal objective  1.759583344e+00
Parameter OutputFlag unchanged
   Value: 1  Min: 0  Max: 1  Default: 1
Parameter OutputFlag unchanged
   Value: 1  Min: 0  Max: 1  Default: 1
Optimize a model with 30 rows, 45 columns and 108 nonzeros
Coefficient statistics:
  Matrix range     [1e+00, 1e+00]
  Objective range  [1e-01, 1e+00]
  Bounds range     [0e+00, 0e+00]
  RHS range        [1e+00, 1e+00]
Presolve removed 15 rows and 18 columns
Presolve time: 0.01s
Presolved: 15 rows, 27 columns, 75 nonzeros

Iteration    Objective       Primal Inf.    Dual Inf.      Time
       0    5.4051140e+00   9.000000e+00   0.000000e+00      0s
      13    2.2635366e+00   0.000000e+00   0.000000e+00      0s

Solved in 13 iterations and 0.03 seconds
Optimal objective  2.263536639e+00
Parameter OutputFlag unchanged
   Value: 1  Min: 0  Max: 1  Default: 1
Optimize a model with 30 rows, 45 columns and 135 nonzeros
Coefficient statistics:
  Matrix range     [1e+00, 1e+00]
  Objective range  [5e-02, 1e+00]
  Bounds range     [0e+00, 0e+00]
  RHS range        [1e+00, 1e+00]
Presolve removed 15 rows and 18 columns
Presolve time: 0.01s
Presolved: 15 rows, 27 columns, 93 nonzeros

Iteration    Objective       Primal Inf.    Dual Inf.      Time
       0    2.9498077e+00   9.000000e+00   0.000000e+00      0s
       9    1.8607234e+00   0.000000e+00   0.000000e+00      0s

Solved in 9 iterations and 0.02 seconds
Optimal objective  1.860723444e+00
Parameter OutputFlag unchanged
   Value: 1  Min: 0  Max: 1  Default: 1
Optimize a model with 30 rows, 45 columns and 153 nonzeros
Coefficient statistics:
  Matrix range     [1e+00, 1e+00]
  Objective range  [5e-02, 7e-01]
  Bounds range     [0e+00, 0e+00]
  RHS range        [1e+00, 1e+00]
Presolve removed 15 rows and 20 columns
Presolve time: 0.01s
Presolved: 15 rows, 25 columns, 91 nonzeros

Iteration    Objective       Primal Inf.    Dual Inf.      Time
       0    2.4323107e+00   3.000000e+00   0.000000e+00      0s
       6    1.7191191e+00   0.000000e+00   0.000000e+00      0s

Solved in 6 iterations and 0.02 seconds
Optimal objective  1.719119128e+00
Parameter OutputFlag unchanged
   Value: 1  Min: 0  Max: 1  Default: 1
Optimize a model with 30 rows, 45 columns and 153 nonzeros
Coefficient statistics:
  Matrix range     [1e+00, 1e+00]
  Objective range  [9e-02, 9e-01]
  Bounds range     [0e+00, 0e+00]
  RHS range        [1e+00, 1e+00]
Presolve removed 15 rows and 20 columns
Presolve time: 0.01s
Presolved: 15 rows, 25 columns, 91 nonzeros

Iteration    Objective       Primal Inf.    Dual Inf.      Time
       0    2.9144199e+00   4.000000e+00   0.000000e+00      0s
       6    2.2009011e+00   0.000000e+00   0.000000e+00      0s

Solved in 6 iterations and 0.02 seconds
Optimal objective  2.200901084e+00
Parameter OutputFlag unchanged
   Value: 1  Min: 0  Max: 1  Default: 1
Optimize a model with 70 rows, 189 columns and 819 nonzeros
Coefficient statistics:
  Matrix range     [1e+00, 1e+00]
  Objective range  [3e-02, 9e-01]
  Bounds range     [0e+00, 0e+00]
  RHS range        [1e+00, 1e+00]
Presolve removed 39 rows and 127 columns
Presolve time: 0.02s
Presolved: 31 rows, 62 columns, 310 nonzeros

Iteration    Objective       Primal Inf.    Dual Inf.      Time
       0    4.5333088e+00   1.000000e+01   0.000000e+00      0s
       7    3.3043091e+00   0.000000e+00   0.000000e+00      0s

Solved in 7 iterations and 0.03 seconds
Optimal objective  3.304309055e+00
Parameter OutputFlag unchanged
   Value: 1  Min: 0  Max: 1  Default: 1
Optimize a model with 70 rows, 189 columns and 420 nonzeros
Coefficient statistics:
  Matrix range     [1e+00, 1e+00]
  Objective range  [3e-02, 9e-01]
  Bounds range     [0e+00, 0e+00]
  RHS range        [1e+00, 1e+00]
Presolve removed 39 rows and 126 columns
Presolve time: 0.01s
Presolved: 31 rows, 63 columns, 183 nonzeros

Iteration    Objective       Primal Inf.    Dual Inf.      Time
       0    9.9984460e+00   1.900000e+01   0.000000e+00      0s
      35    4.5882845e+00   0.000000e+00   0.000000e+00      0s

Solved in 35 iterations and 0.02 seconds
Optimal objective  4.588284520e+00
Parameter OutputFlag unchanged
   Value: 1  Min: 0  Max: 1  Default: 1
Optimize a model with 70 rows, 189 columns and 798 nonzeros
Coefficient statistics:
  Matrix range     [1e+00, 1e+00]
  Objective range  [8e-02, 1e+00]
  Bounds range     [0e+00, 0e+00]
  RHS range        [1e+00, 1e+00]
Presolve removed 39 rows and 126 columns
Presolve time: 0.01s
Presolved: 31 rows, 63 columns, 318 nonzeros

Iteration    Objective       Primal Inf.    Dual Inf.      Time
       0    4.8470172e+00   1.200000e+01   0.000000e+00      0s
      10    4.2755163e+00   0.000000e+00   0.000000e+00      0s

Solved in 10 iterations and 0.03 seconds
Optimal objective  4.275516329e+00
Parameter OutputFlag unchanged
   Value: 1  Min: 0  Max: 1  Default: 1
Optimize a model with 1220 rows, 8800 columns and 41200 nonzeros
Coefficient statistics:
  Matrix range     [1e+00, 1e+00]
  Objective range  [3e-04, 1e+00]
  Bounds range     [0e+00, 0e+00]
  RHS range        [1e+00, 1e+00]

Concurrent LP optimizer: dual simplex and barrier
Showing barrier log only...

Presolve removed 780 rows and 7600 columns
Presolve time: 0.07s
Presolved: 440 rows, 1200 columns, 6800 nonzeros

Ordering time: 0.00s

Barrier performed 0 iterations in 0.09 seconds
Barrier solve interrupted - model solved by another algorithm


Solved with dual simplex
Solved in 224 iterations and 0.10 seconds
Optimal objective  1.867001746e+01
Parameter OutputFlag unchanged
   Value: 1  Min: 0  Max: 1  Default: 1
Optimize a model with 930 rows, 9600 columns and 45900 nonzeros
Coefficient statistics:
  Matrix range     [1e+00, 1e+00]
  Objective range  [2e-03, 1e+00]
  Bounds range     [0e+00, 0e+00]
  RHS range        [1e+00, 1e+00]

Concurrent LP optimizer: dual simplex and barrier
Showing barrier log only...

Presolve removed 590 rows and 8700 columns
Presolve time: 0.04s
Presolved: 340 rows, 900 columns, 5200 nonzeros

Ordering time: 0.00s

Barrier performed 0 iterations in 0.06 seconds
Barrier solve interrupted - model solved by another algorithm


Solved with dual simplex
Solved in 190 iterations and 0.06 seconds
Optimal objective  2.629086561e+01
Parameter OutputFlag unchanged
   Value: 1  Min: 0  Max: 1  Default: 1
Optimize a model with 930 rows, 9600 columns and 45900 nonzeros
Coefficient statistics:
  Matrix range     [1e+00, 1e+00]
  Objective range  [3e-04, 1e+00]
  Bounds range     [0e+00, 0e+00]
  RHS range        [1e+00, 1e+00]

Concurrent LP optimizer: dual simplex and barrier
Showing barrier log only...

Presolve removed 590 rows and 8700 columns
Presolve time: 0.05s
Presolved: 340 rows, 900 columns, 5200 nonzeros

Ordering time: 0.00s

Barrier performed 0 iterations in 0.07 seconds
Barrier solve interrupted - model solved by another algorithm


Solved with dual simplex
Solved in 205 iterations and 0.08 seconds
Optimal objective  2.639234942e+01
Parameter OutputFlag unchanged
   Value: 1  Min: 0  Max: 1  Default: 1
Parameter OutputFlag unchanged
   Value: 1  Min: 0  Max: 1  Default: 1
Optimize a model with 7550 rows, 130000 columns and 632500 nonzeros
Coefficient statistics:
  Matrix range     [1e+00, 1e+00]
  Objective range  [9e-05, 1e+00]
  Bounds range     [0e+00, 0e+00]
  RHS range        [1e+00, 1e+00]

Concurrent LP optimizer: dual simplex and barrier
Showing barrier log only...

Presolve removed 4950 rows and 122500 columns
Presolve time: 0.42s
Presolved: 2600 rows, 7500 columns, 44000 nonzeros

Ordering time: 0.00s

Barrier statistics:
 AA' NZ     : 2.665e+04
 Factor NZ  : 6.744e+04 (roughly 5 MBytes of memory)
 Factor Ops : 1.977e+06 (less than 1 second per iteration)
 Threads    : 1

                  Objective                Residual
Iter       Primal          Dual         Primal    Dual     Compl     Time
   0   2.70938540e+04  9.48717515e+01  1.08e+03 6.95e-01  1.08e+01     1s
   1   3.84673920e+03  9.51921921e+02  1.52e+02 6.12e-01  1.91e+00     1s
   2   2.89702499e+02  1.08068723e+03  1.36e+01 0.00e+00  2.38e-01     1s
   3   2.31733109e+02  5.31993151e+02  8.87e+00 1.44e-15  9.59e-02     1s
   4   5.34867136e+01  9.60597600e+01  9.77e-01 8.88e-16  1.12e-02     1s

Barrier performed 4 iterations in 0.57 seconds
Barrier solve interrupted - model solved by another algorithm


Solved with dual simplex
Solved in 1245 iterations and 0.58 seconds
Optimal objective  4.900269851e+01
Parameter OutputFlag unchanged
   Value: 1  Min: 0  Max: 1  Default: 1
Parameter OutputFlag unchanged
   Value: 1  Min: 0  Max: 1  Default: 1
Parameter OutputFlag unchanged
   Value: 1  Min: 0  Max: 1  Default: 1
Parameter OutputFlag unchanged
   Value: 1  Min: 0  Max: 1  Default: 1
Parameter OutputFlag unchanged
   Value: 1  Min: 0  Max: 1  Default: 1
Parameter OutputFlag unchanged
   Value: 1  Min: 0  Max: 1  Default: 1
Parameter OutputFlag unchanged
   Value: 1  Min: 0  Max: 1  Default: 1
Parameter OutputFlag unchanged
   Value: 1  Min: 0  Max: 1  Default: 1
Parameter OutputFlag unchanged
   Value: 1  Min: 0  Max: 1  Default: 1
Parameter OutputFlag unchanged
   Value: 1  Min: 0  Max: 1  Default: 1
Parameter OutputFlag unchanged
   Value: 1  Min: 0  Max: 1  Default: 1
Parameter OutputFlag unchanged
   Value: 1  Min: 0  Max: 1  Default: 1
Optimize a model with 7550 rows, 130000 columns and 632500 nonzeros
Coefficient statistics:
  Matrix range     [1e+00, 1e+00]
  Objective range  [9e-05, 1e+00]
  Bounds range     [0e+00, 0e+00]
  RHS range        [1e+00, 1e+00]

Concurrent LP optimizer: dual simplex and barrier
Showing barrier log only...

Presolve removed 4950 rows and 122500 columns
Presolve time: 0.45s
Presolved: 2600 rows, 7500 columns, 44000 nonzeros

Ordering time: 0.00s

Barrier statistics:
 AA' NZ     : 2.665e+04
 Factor NZ  : 6.744e+04 (roughly 5 MBytes of memory)
 Factor Ops : 1.977e+06 (less than 1 second per iteration)
 Threads    : 1

                  Objective                Residual
Iter       Primal          Dual         Primal    Dual     Compl     Time
   0   2.70938540e+04  9.48717515e+01  1.08e+03 6.95e-01  1.08e+01     1s
   1   3.84673920e+03  9.51921921e+02  1.52e+02 6.12e-01  1.91e+00     1s
   2   2.89702499e+02  1.08068723e+03  1.36e+01 0.00e+00  2.38e-01     1s
   3   2.31733109e+02  5.31993151e+02  8.87e+00 1.44e-15  9.59e-02     1s
   4   5.34867136e+01  9.60597600e+01  9.77e-01 8.88e-16  1.12e-02     1s
   5   3.84248436e+01  5.79423686e+01  2.25e-03 5.55e-16  1.94e-03     1s
   6   4.60876250e+01  5.11223244e+01  0.00e+00 4.44e-16  4.96e-04     1s
   7   4.72302745e+01  4.98342800e+01  0.00e+00 3.33e-16  2.57e-04     1s
   8   4.84664866e+01  4.92362360e+01  0.00e+00 3.33e-16  7.58e-05     1s
   9   4.89560275e+01  4.90182182e+01  0.00e+00 3.33e-16  6.13e-06     1s
  10   4.90024098e+01  4.90028773e+01  0.00e+00 3.33e-16  4.61e-08     1s

Barrier performed 10 iterations in 0.67 seconds
Barrier solve interrupted - model solved by another algorithm


Solved with dual simplex
Solved in 1245 iterations and 0.68 seconds
Optimal objective  4.900269851e+01
Parameter OutputFlag unchanged
   Value: 1  Min: 0  Max: 1  Default: 1
Parameter OutputFlag unchanged
   Value: 1  Min: 0  Max: 1  Default: 1
Optimize a model with 3150 rows, 18125 columns and 87500 nonzeros
Coefficient statistics:
  Matrix range     [1e+00, 1e+00]
  Objective range  [6e-04, 1e+00]
  Bounds range     [0e+00, 0e+00]
  RHS range        [1e+00, 1e+00]

Concurrent LP optimizer: dual simplex and barrier
Showing barrier log only...

Presolve removed 2425 rows and 15000 columns
Presolve time: 0.11s
Presolved: 725 rows, 3125 columns, 18225 nonzeros

Ordering time: 0.00s

Barrier statistics:
 AA' NZ     : 7.900e+03
 Factor NZ  : 1.827e+04 (roughly 2 MBytes of memory)
 Factor Ops : 4.758e+05 (less than 1 second per iteration)
 Threads    : 1

Barrier performed 0 iterations in 0.14 seconds
Barrier solve interrupted - model solved by another algorithm


Solved with dual simplex
Solved in 433 iterations and 0.15 seconds
Optimal objective  2.410413828e+01
